Maximize
  - 2.69349951517 edge_0_2_0_0 - 0.65712003433781 edge_0_3_0_0
   - 3.8937389391693 edge_0_7_0_0 + 0.09231489935 edge_0_10_0_0
   + 0.7192542748951272 edge_2_3_0_0 - 0.0369063010099606 edge_2_4_0_0
   + 0.921306711024742 edge_2_7_0_0 + 1.179072585929896 edge_2_8_0_0
   - 0.1360305440144977 edge_2_10_0_0 - 0.5190223887975332 edge_2_11_0_0
   - 0.5402683261510438 edge_2_13_0_0 + 0.5112835447923654 edge_2_18_0_0
   + 2.084324310216757 edge_3_2_0_0 + 0.6193455665812122 edge_3_4_0_0
   + 0.1608957877142093 edge_3_6_0_0 + 1.961402825133389 edge_3_7_0_0
   + 1.073475241909026 edge_3_8_0_0 + 1.416854450808277 edge_3_10_0_0
   + 0.5443288539219068 edge_3_11_0_0 + 0.4128015069000834 edge_3_13_0_0
   + 0.3073305638460413 edge_3_14_0_0 + 0.7416359006253279 edge_3_16_0_0
   + 2.615492859968785 edge_3_18_0_0 - 1.012004977248738 edge_3_19_0_0
   - 1.272963890634518 edge_3_21_0_0 - 0.6251664908751043 edge_3_22_0_0
   - 0.1093655320345939 edge_3_25_0_0 + 3.853570767962061 edge_3_26_0_0
   - 0.5368313061956306 edge_4_14_0_0 - 0.9541971879647644 edge_4_16_0_0
   - 1.158086594601075 edge_6_2_0_0 - 0.5421437416938909 edge_6_3_0_0
   + 0.7835662938814798 edge_6_4_0_0 + 2.965483649045932 edge_6_5_0_0
   - 0.5083375554018758 edge_6_7_0_0 - 1.283344686053049 edge_6_8_0_0
   - 0.5458717008124542 edge_6_11_0_0 - 0.1067861540873101 edge_6_13_0_0
   + 0.8626955551739088 edge_6_14_0_0 + 0.7963370272543366 edge_6_16_0_0
   + 2.036685359239118 edge_6_18_0_0 + 1.115837152742147 edge_6_19_0_0
   - 0.1933018492339954 edge_6_20_0_0 + 1.316227058290641 edge_6_21_0_0
   + 0.1258082696851528 edge_6_22_0_0 - 0.3684457466690705 edge_6_25_0_0
   + 1.39880122608203 edge_6_26_0_0 - 1.49305200799909 edge_7_2_0_0
   - 0.9757350086116675 edge_7_3_0_0 - 0.2237670191736705 edge_7_8_0_0
   - 0.3364384434288328 edge_7_10_0_0 - 0.4127024044477138 edge_8_2_0_0
   - 0.2843462512739034 edge_8_3_0_0 - 0.4988582277996937 edge_8_4_0_0
   + 0.2715008147412811 edge_8_7_0_0 - 0.00416770814775482 edge_8_10_0_0
   - 0.8048699036727307 edge_8_11_0_0 - 0.6695711199454722 edge_8_13_0_0
   + 0.3698106186340767 edge_10_2_0_0 + 0.3717020040199338 edge_10_3_0_0
   + 1.519753210316279 edge_10_4_0_0 + 0.2454576019601714 edge_10_5_0_0
   + 1.041968667949534 edge_10_6_0_0 + 0.6788128830726248 edge_10_7_0_0
   + 1.117927144825767 edge_10_8_0_0 + 1.357130669843015 edge_10_11_0_0
   + 1.53364341671337 edge_10_13_0_0 + 0.5911153487509464 edge_10_14_0_0
   + 1.396383030503557 edge_10_16_0_0 + 2.247299196264065 edge_10_18_0_0
   - 0.0372481720921541 edge_10_19_0_0 - 0.1603143070485443 edge_10_20_0_0
   + 0.1154910287201823 edge_10_21_0_0 + 0.2247242844421401 edge_10_22_0_0
   - 0.0315109528940203 edge_10_25_0_0 + 3.524778044618828 edge_10_26_0_0
   + 0.1872570937960537 edge_11_4_0_0 - 0.3760555380102868 edge_11_6_0_0
   + 0.6112461017413089 edge_11_13_0_0 - 0.2603640383944583 edge_11_14_0_0
   + 0.5094918084450368 edge_11_16_0_0 + 0.1188743295702565 edge_11_18_0_0
   - 1.528349607153821 edge_13_2_0_0 - 0.6137072061973294 edge_13_3_0_0
   + 1.508105387637442 edge_13_4_0_0 + 0.2562071114961737 edge_13_5_0_0
   + 1.000983323216233 edge_13_6_0_0 - 0.6361567622082148 edge_13_7_0_0
   - 1.123216650879047 edge_13_8_0_0 - 0.1105455226837952 edge_13_10_0_0
   + 0.5301219002317882 edge_13_11_0_0 + 0.3215638960415158 edge_13_14_0_0
   + 1.662366823296477 edge_13_16_0_0 + 1.975639279391389 edge_13_18_0_0
   + 0.8198993775060291 edge_13_19_0_0 - 0.2825762499794713 edge_13_20_0_0
   + 0.5773129296601751 edge_13_21_0_0 + 0.0464136826942085 edge_13_22_0_0
   + 1.624388369301807 edge_13_26_0_0 + 0.4584611937773035 edge_14_4_0_0
   - 0.2437660639582976 edge_14_5_0_0 + 0.0903688314786487 edge_14_6_0_0
   + 1.382637437137896 edge_14_16_0_0 - 0.7731095709177076 edge_16_3_0_0
   + 1.654764041017491 edge_16_4_0_0 + 0.5065510907551054 edge_16_5_0_0
   + 1.547929500214168 edge_16_6_0_0 - 0.5018244855643957 edge_16_7_0_0
   - 1.313900098236427 edge_16_8_0_0 + 0.091280445893163 edge_16_11_0_0
   + 0.3984228613470972 edge_16_13_0_0 + 1.930535088446129 edge_16_14_0_0
   + 2.4468683889445 edge_16_18_0_0 + 1.699412508193721 edge_16_19_0_0
   - 0.2528626481376043 edge_16_20_0_0 + 1.242205274674512 edge_16_21_0_0
   + 0.1324756777471796 edge_16_22_0_0 - 0.2940392114086556 edge_16_25_0_0
   + 1.187184259522553 edge_16_26_0_0 - 0.8984483265276642 edge_18_5_0_0
   - 1.190695278998044 edge_18_6_0_0 - 0.0411275984366308 edge_19_20_0_0
   + 0.2727131566580638 edge_19_21_0_0 + 0.0980735958308039 edge_20_21_0_0
   + 0.4623340906573709 edge_20_22_0_0 + 0.3345513341794696 edge_20_25_0_0
   - 0.2006964681348082 edge_21_5_0_0 + 1.607699674399573 edge_21_19_0_0
   + 0.1909375530060834 edge_21_20_0_0 + 0.6913612787664218 edge_21_22_0_0
   + 0.0522099457075953 edge_21_25_0_0 + 0.791199861459744 edge_21_26_0_0
   - 1.149437631114889 edge_22_2_0_0 - 0.7468888421132824 edge_22_3_0_0
   - 0.4831256938493876 edge_22_5_0_0 - 0.2667941195943843 edge_22_6_0_0
   - 0.3351767952628622 edge_22_7_0_0 - 0.5863399118261737 edge_22_10_0_0
   + 0.262905665924769 edge_22_18_0_0 + 0.6423958578817478 edge_22_19_0_0
   + 1.280227745862216 edge_22_20_0_0 + 0.6341547388686902 edge_22_21_0_0
   + 0.9954668638938249 edge_22_25_0_0 + 1.232341749959596 edge_22_26_0_0
   + 0.1478569849413839 edge_25_19_0_0 + 0.3797813661292204 edge_25_20_0_0
   + 0.6987006847951236 edge_25_22_0_0 + 0.8709561730678126 edge_25_26_0_0
   - 0.6014969403964767 edge_26_25_0_0
Subject To
 one_parent_1: = 1
 consume_one_flow_unit_1: = 1
 one_parent_2: edge_0_2_0_0 + edge_3_2_0_0 + edge_6_2_0_0 + edge_7_2_0_0
   + edge_8_2_0_0 + edge_10_2_0_0 + edge_13_2_0_0 + edge_22_2_0_0 = 1
 consume_one_flow_unit_2: flow_0_2_0_0 - flow_2_3_0_0 - flow_2_4_0_0
   - flow_2_7_0_0 - flow_2_8_0_0 - flow_2_10_0_0 - flow_2_11_0_0
   - flow_2_13_0_0 - flow_2_18_0_0 + flow_3_2_0_0 + flow_6_2_0_0
   + flow_7_2_0_0 + flow_8_2_0_0 + flow_10_2_0_0 + flow_13_2_0_0
   + flow_22_2_0_0 = 1
 one_parent_3: edge_0_3_0_0 + edge_2_3_0_0 + edge_6_3_0_0 + edge_7_3_0_0
   + edge_8_3_0_0 + edge_10_3_0_0 + edge_13_3_0_0 + edge_16_3_0_0
   + edge_22_3_0_0 = 1
 consume_one_flow_unit_3: flow_0_3_0_0 + flow_2_3_0_0 - flow_3_2_0_0
   - flow_3_4_0_0 - flow_3_6_0_0 - flow_3_7_0_0 - flow_3_8_0_0
   - flow_3_10_0_0 - flow_3_11_0_0 - flow_3_13_0_0 - flow_3_14_0_0
   - flow_3_16_0_0 - flow_3_18_0_0 - flow_3_19_0_0 - flow_3_21_0_0
   - flow_3_22_0_0 - flow_3_25_0_0 - flow_3_26_0_0 + flow_6_3_0_0
   + flow_7_3_0_0 + flow_8_3_0_0 + flow_10_3_0_0 + flow_13_3_0_0
   + flow_16_3_0_0 + flow_22_3_0_0 = 1
 one_parent_4: edge_2_4_0_0 + edge_3_4_0_0 + edge_6_4_0_0 + edge_8_4_0_0
   + edge_10_4_0_0 + edge_11_4_0_0 + edge_13_4_0_0 + edge_14_4_0_0
   + edge_16_4_0_0 = 1
 consume_one_flow_unit_4: flow_2_4_0_0 + flow_3_4_0_0 - flow_4_14_0_0
   - flow_4_16_0_0 + flow_6_4_0_0 + flow_8_4_0_0 + flow_10_4_0_0
   + flow_11_4_0_0 + flow_13_4_0_0 + flow_14_4_0_0 + flow_16_4_0_0 = 1
 one_parent_5: edge_6_5_0_0 + edge_10_5_0_0 + edge_13_5_0_0 + edge_14_5_0_0
   + edge_16_5_0_0 + edge_18_5_0_0 + edge_21_5_0_0 + edge_22_5_0_0 = 1
 consume_one_flow_unit_5: flow_6_5_0_0 + flow_10_5_0_0 + flow_13_5_0_0
   + flow_14_5_0_0 + flow_16_5_0_0 + flow_18_5_0_0 + flow_21_5_0_0
   + flow_22_5_0_0 = 1
 one_parent_6: edge_3_6_0_0 + edge_10_6_0_0 + edge_11_6_0_0 + edge_13_6_0_0
   + edge_14_6_0_0 + edge_16_6_0_0 + edge_18_6_0_0 + edge_22_6_0_0 = 1
 consume_one_flow_unit_6: flow_3_6_0_0 - flow_6_2_0_0 - flow_6_3_0_0
   - flow_6_4_0_0 - flow_6_5_0_0 - flow_6_7_0_0 - flow_6_8_0_0
   - flow_6_11_0_0 - flow_6_13_0_0 - flow_6_14_0_0 - flow_6_16_0_0
   - flow_6_18_0_0 - flow_6_19_0_0 - flow_6_20_0_0 - flow_6_21_0_0
   - flow_6_22_0_0 - flow_6_25_0_0 - flow_6_26_0_0 + flow_10_6_0_0
   + flow_11_6_0_0 + flow_13_6_0_0 + flow_14_6_0_0 + flow_16_6_0_0
   + flow_18_6_0_0 + flow_22_6_0_0 = 1
 one_parent_7: edge_0_7_0_0 + edge_2_7_0_0 + edge_3_7_0_0 + edge_6_7_0_0
   + edge_8_7_0_0 + edge_10_7_0_0 + edge_13_7_0_0 + edge_16_7_0_0
   + edge_22_7_0_0 = 1
 consume_one_flow_unit_7: flow_0_7_0_0 + flow_2_7_0_0 + flow_3_7_0_0
   + flow_6_7_0_0 - flow_7_2_0_0 - flow_7_3_0_0 - flow_7_8_0_0
   - flow_7_10_0_0 + flow_8_7_0_0 + flow_10_7_0_0 + flow_13_7_0_0
   + flow_16_7_0_0 + flow_22_7_0_0 = 1
 one_parent_8: edge_2_8_0_0 + edge_3_8_0_0 + edge_6_8_0_0 + edge_7_8_0_0
   + edge_10_8_0_0 + edge_13_8_0_0 + edge_16_8_0_0 = 1
 consume_one_flow_unit_8: flow_2_8_0_0 + flow_3_8_0_0 + flow_6_8_0_0
   + flow_7_8_0_0 - flow_8_2_0_0 - flow_8_3_0_0 - flow_8_4_0_0
   - flow_8_7_0_0 - flow_8_10_0_0 - flow_8_11_0_0 - flow_8_13_0_0
   + flow_10_8_0_0 + flow_13_8_0_0 + flow_16_8_0_0 = 1
 one_parent_9: = 1
 consume_one_flow_unit_9: = 1
 one_parent_10: edge_0_10_0_0 + edge_2_10_0_0 + edge_3_10_0_0
   + edge_7_10_0_0 + edge_8_10_0_0 + edge_13_10_0_0 + edge_22_10_0_0 = 1
 consume_one_flow_unit_10: flow_0_10_0_0 + flow_2_10_0_0 + flow_3_10_0_0
   + flow_7_10_0_0 + flow_8_10_0_0 - flow_10_2_0_0 - flow_10_3_0_0
   - flow_10_4_0_0 - flow_10_5_0_0 - flow_10_6_0_0 - flow_10_7_0_0
   - flow_10_8_0_0 - flow_10_11_0_0 - flow_10_13_0_0 - flow_10_14_0_0
   - flow_10_16_0_0 - flow_10_18_0_0 - flow_10_19_0_0 - flow_10_20_0_0
   - flow_10_21_0_0 - flow_10_22_0_0 - flow_10_25_0_0 - flow_10_26_0_0
   + flow_13_10_0_0 + flow_22_10_0_0 = 1
 one_parent_11: edge_2_11_0_0 + edge_3_11_0_0 + edge_6_11_0_0
   + edge_8_11_0_0 + edge_10_11_0_0 + edge_13_11_0_0 + edge_16_11_0_0 = 1
 consume_one_flow_unit_11: flow_2_11_0_0 + flow_3_11_0_0 + flow_6_11_0_0
   + flow_8_11_0_0 + flow_10_11_0_0 - flow_11_4_0_0 - flow_11_6_0_0
   - flow_11_13_0_0 - flow_11_14_0_0 - flow_11_16_0_0 - flow_11_18_0_0
   + flow_13_11_0_0 + flow_16_11_0_0 = 1
 one_parent_12: = 1
 consume_one_flow_unit_12: = 1
 one_parent_13: edge_2_13_0_0 + edge_3_13_0_0 + edge_6_13_0_0
   + edge_8_13_0_0 + edge_10_13_0_0 + edge_11_13_0_0 + edge_16_13_0_0 = 1
 consume_one_flow_unit_13: flow_2_13_0_0 + flow_3_13_0_0 + flow_6_13_0_0
   + flow_8_13_0_0 + flow_10_13_0_0 + flow_11_13_0_0 - flow_13_2_0_0
   - flow_13_3_0_0 - flow_13_4_0_0 - flow_13_5_0_0 - flow_13_6_0_0
   - flow_13_7_0_0 - flow_13_8_0_0 - flow_13_10_0_0 - flow_13_11_0_0
   - flow_13_14_0_0 - flow_13_16_0_0 - flow_13_18_0_0 - flow_13_19_0_0
   - flow_13_20_0_0 - flow_13_21_0_0 - flow_13_22_0_0 - flow_13_26_0_0
   + flow_16_13_0_0 = 1
 one_parent_14: edge_3_14_0_0 + edge_4_14_0_0 + edge_6_14_0_0
   + edge_10_14_0_0 + edge_11_14_0_0 + edge_13_14_0_0 + edge_16_14_0_0 = 1
 consume_one_flow_unit_14: flow_3_14_0_0 + flow_4_14_0_0 + flow_6_14_0_0
   + flow_10_14_0_0 + flow_11_14_0_0 + flow_13_14_0_0 - flow_14_4_0_0
   - flow_14_5_0_0 - flow_14_6_0_0 - flow_14_16_0_0 + flow_16_14_0_0 = 1
 one_parent_15: = 1
 consume_one_flow_unit_15: = 1
 one_parent_16: edge_3_16_0_0 + edge_4_16_0_0 + edge_6_16_0_0
   + edge_10_16_0_0 + edge_11_16_0_0 + edge_13_16_0_0 + edge_14_16_0_0 = 1
 consume_one_flow_unit_16: flow_3_16_0_0 + flow_4_16_0_0 + flow_6_16_0_0
   + flow_10_16_0_0 + flow_11_16_0_0 + flow_13_16_0_0 + flow_14_16_0_0
   - flow_16_3_0_0 - flow_16_4_0_0 - flow_16_5_0_0 - flow_16_6_0_0
   - flow_16_7_0_0 - flow_16_8_0_0 - flow_16_11_0_0 - flow_16_13_0_0
   - flow_16_14_0_0 - flow_16_18_0_0 - flow_16_19_0_0 - flow_16_20_0_0
   - flow_16_21_0_0 - flow_16_22_0_0 - flow_16_25_0_0 - flow_16_26_0_0 = 1
 one_parent_17: = 1
 consume_one_flow_unit_17: = 1
 one_parent_18: edge_2_18_0_0 + edge_3_18_0_0 + edge_6_18_0_0
   + edge_10_18_0_0 + edge_11_18_0_0 + edge_13_18_0_0 + edge_16_18_0_0
   + edge_22_18_0_0 = 1
 consume_one_flow_unit_18: flow_2_18_0_0 + flow_3_18_0_0 + flow_6_18_0_0
   + flow_10_18_0_0 + flow_11_18_0_0 + flow_13_18_0_0 + flow_16_18_0_0
   - flow_18_5_0_0 - flow_18_6_0_0 + flow_22_18_0_0 = 1
 one_parent_19: edge_3_19_0_0 + edge_6_19_0_0 + edge_10_19_0_0
   + edge_13_19_0_0 + edge_16_19_0_0 + edge_21_19_0_0 + edge_22_19_0_0
   + edge_25_19_0_0 = 1
 consume_one_flow_unit_19: flow_3_19_0_0 + flow_6_19_0_0 + flow_10_19_0_0
   + flow_13_19_0_0 + flow_16_19_0_0 - flow_19_20_0_0 - flow_19_21_0_0
   + flow_21_19_0_0 + flow_22_19_0_0 + flow_25_19_0_0 = 1
 one_parent_20: edge_6_20_0_0 + edge_10_20_0_0 + edge_13_20_0_0
   + edge_16_20_0_0 + edge_19_20_0_0 + edge_21_20_0_0 + edge_22_20_0_0
   + edge_25_20_0_0 = 1
 consume_one_flow_unit_20: flow_6_20_0_0 + flow_10_20_0_0 + flow_13_20_0_0
   + flow_16_20_0_0 + flow_19_20_0_0 - flow_20_21_0_0 - flow_20_22_0_0
   - flow_20_25_0_0 + flow_21_20_0_0 + flow_22_20_0_0 + flow_25_20_0_0 = 1
 one_parent_21: edge_3_21_0_0 + edge_6_21_0_0 + edge_10_21_0_0
   + edge_13_21_0_0 + edge_16_21_0_0 + edge_19_21_0_0 + edge_20_21_0_0
   + edge_22_21_0_0 = 1
 consume_one_flow_unit_21: flow_3_21_0_0 + flow_6_21_0_0 + flow_10_21_0_0
   + flow_13_21_0_0 + flow_16_21_0_0 + flow_19_21_0_0 + flow_20_21_0_0
   - flow_21_5_0_0 - flow_21_19_0_0 - flow_21_20_0_0 - flow_21_22_0_0
   - flow_21_25_0_0 - flow_21_26_0_0 + flow_22_21_0_0 = 1
 one_parent_22: edge_3_22_0_0 + edge_6_22_0_0 + edge_10_22_0_0
   + edge_13_22_0_0 + edge_16_22_0_0 + edge_20_22_0_0 + edge_21_22_0_0
   + edge_25_22_0_0 = 1
 consume_one_flow_unit_22: flow_3_22_0_0 + flow_6_22_0_0 + flow_10_22_0_0
   + flow_13_22_0_0 + flow_16_22_0_0 + flow_20_22_0_0 + flow_21_22_0_0
   - flow_22_2_0_0 - flow_22_3_0_0 - flow_22_5_0_0 - flow_22_6_0_0
   - flow_22_7_0_0 - flow_22_10_0_0 - flow_22_18_0_0 - flow_22_19_0_0
   - flow_22_20_0_0 - flow_22_21_0_0 - flow_22_25_0_0 - flow_22_26_0_0
   + flow_25_22_0_0 = 1
 one_parent_23: = 1
 consume_one_flow_unit_23: = 1
 one_parent_24: = 1
 consume_one_flow_unit_24: = 1
 one_parent_25: edge_3_25_0_0 + edge_6_25_0_0 + edge_10_25_0_0
   + edge_16_25_0_0 + edge_20_25_0_0 + edge_21_25_0_0 + edge_22_25_0_0
   + edge_26_25_0_0 = 1
 consume_one_flow_unit_25: flow_3_25_0_0 + flow_6_25_0_0 + flow_10_25_0_0
   + flow_16_25_0_0 + flow_20_25_0_0 + flow_21_25_0_0 + flow_22_25_0_0
   - flow_25_19_0_0 - flow_25_20_0_0 - flow_25_22_0_0 - flow_25_26_0_0
   + flow_26_25_0_0 = 1
 one_parent_26: edge_3_26_0_0 + edge_6_26_0_0 + edge_10_26_0_0
   + edge_13_26_0_0 + edge_16_26_0_0 + edge_21_26_0_0 + edge_22_26_0_0
   + edge_25_26_0_0 = 1
 consume_one_flow_unit_26: flow_3_26_0_0 + flow_6_26_0_0 + flow_10_26_0_0
   + flow_13_26_0_0 + flow_16_26_0_0 + flow_21_26_0_0 + flow_22_26_0_0
   + flow_25_26_0_0 - flow_26_25_0_0 = 1
 root_flow: flow_0_2_0_0 + flow_0_3_0_0 + flow_0_7_0_0 + flow_0_10_0_0
   = 26
 inactive_no_flow_0_2_0_0: flow_0_2_0_0 - 1000 edge_0_2_0_0 <= 0
 inactive_no_flow_0_3_0_0: flow_0_3_0_0 - 1000 edge_0_3_0_0 <= 0
 inactive_no_flow_0_7_0_0: flow_0_7_0_0 - 1000 edge_0_7_0_0 <= 0
 inactive_no_flow_0_10_0_0: flow_0_10_0_0 - 1000 edge_0_10_0_0 <= 0
 inactive_no_flow_2_3_0_0: flow_2_3_0_0 - 1000 edge_2_3_0_0 <= 0
 inactive_no_flow_2_4_0_0: flow_2_4_0_0 - 1000 edge_2_4_0_0 <= 0
 inactive_no_flow_2_7_0_0: flow_2_7_0_0 - 1000 edge_2_7_0_0 <= 0
 inactive_no_flow_2_8_0_0: flow_2_8_0_0 - 1000 edge_2_8_0_0 <= 0
 inactive_no_flow_2_10_0_0: flow_2_10_0_0 - 1000 edge_2_10_0_0 <= 0
 inactive_no_flow_2_11_0_0: flow_2_11_0_0 - 1000 edge_2_11_0_0 <= 0
 inactive_no_flow_2_13_0_0: flow_2_13_0_0 - 1000 edge_2_13_0_0 <= 0
 inactive_no_flow_2_18_0_0: flow_2_18_0_0 - 1000 edge_2_18_0_0 <= 0
 inactive_no_flow_3_2_0_0: flow_3_2_0_0 - 1000 edge_3_2_0_0 <= 0
 inactive_no_flow_3_4_0_0: flow_3_4_0_0 - 1000 edge_3_4_0_0 <= 0
 inactive_no_flow_3_6_0_0: flow_3_6_0_0 - 1000 edge_3_6_0_0 <= 0
 inactive_no_flow_3_7_0_0: flow_3_7_0_0 - 1000 edge_3_7_0_0 <= 0
 inactive_no_flow_3_8_0_0: flow_3_8_0_0 - 1000 edge_3_8_0_0 <= 0
 inactive_no_flow_3_10_0_0: flow_3_10_0_0 - 1000 edge_3_10_0_0 <= 0
 inactive_no_flow_3_11_0_0: flow_3_11_0_0 - 1000 edge_3_11_0_0 <= 0
 inactive_no_flow_3_13_0_0: flow_3_13_0_0 - 1000 edge_3_13_0_0 <= 0
 inactive_no_flow_3_14_0_0: flow_3_14_0_0 - 1000 edge_3_14_0_0 <= 0
 inactive_no_flow_3_16_0_0: flow_3_16_0_0 - 1000 edge_3_16_0_0 <= 0
 inactive_no_flow_3_18_0_0: flow_3_18_0_0 - 1000 edge_3_18_0_0 <= 0
 inactive_no_flow_3_19_0_0: flow_3_19_0_0 - 1000 edge_3_19_0_0 <= 0
 inactive_no_flow_3_21_0_0: flow_3_21_0_0 - 1000 edge_3_21_0_0 <= 0
 inactive_no_flow_3_22_0_0: flow_3_22_0_0 - 1000 edge_3_22_0_0 <= 0
 inactive_no_flow_3_25_0_0: flow_3_25_0_0 - 1000 edge_3_25_0_0 <= 0
 inactive_no_flow_3_26_0_0: flow_3_26_0_0 - 1000 edge_3_26_0_0 <= 0
 inactive_no_flow_4_14_0_0: flow_4_14_0_0 - 1000 edge_4_14_0_0 <= 0
 inactive_no_flow_4_16_0_0: flow_4_16_0_0 - 1000 edge_4_16_0_0 <= 0
 inactive_no_flow_6_2_0_0: flow_6_2_0_0 - 1000 edge_6_2_0_0 <= 0
 inactive_no_flow_6_3_0_0: flow_6_3_0_0 - 1000 edge_6_3_0_0 <= 0
 inactive_no_flow_6_4_0_0: flow_6_4_0_0 - 1000 edge_6_4_0_0 <= 0
 inactive_no_flow_6_5_0_0: flow_6_5_0_0 - 1000 edge_6_5_0_0 <= 0
 inactive_no_flow_6_7_0_0: flow_6_7_0_0 - 1000 edge_6_7_0_0 <= 0
 inactive_no_flow_6_8_0_0: flow_6_8_0_0 - 1000 edge_6_8_0_0 <= 0
 inactive_no_flow_6_11_0_0: flow_6_11_0_0 - 1000 edge_6_11_0_0 <= 0
 inactive_no_flow_6_13_0_0: flow_6_13_0_0 - 1000 edge_6_13_0_0 <= 0
 inactive_no_flow_6_14_0_0: flow_6_14_0_0 - 1000 edge_6_14_0_0 <= 0
 inactive_no_flow_6_16_0_0: flow_6_16_0_0 - 1000 edge_6_16_0_0 <= 0
 inactive_no_flow_6_18_0_0: flow_6_18_0_0 - 1000 edge_6_18_0_0 <= 0
 inactive_no_flow_6_19_0_0: flow_6_19_0_0 - 1000 edge_6_19_0_0 <= 0
 inactive_no_flow_6_20_0_0: flow_6_20_0_0 - 1000 edge_6_20_0_0 <= 0
 inactive_no_flow_6_21_0_0: flow_6_21_0_0 - 1000 edge_6_21_0_0 <= 0
 inactive_no_flow_6_22_0_0: flow_6_22_0_0 - 1000 edge_6_22_0_0 <= 0
 inactive_no_flow_6_25_0_0: flow_6_25_0_0 - 1000 edge_6_25_0_0 <= 0
 inactive_no_flow_6_26_0_0: flow_6_26_0_0 - 1000 edge_6_26_0_0 <= 0
 inactive_no_flow_7_2_0_0: flow_7_2_0_0 - 1000 edge_7_2_0_0 <= 0
 inactive_no_flow_7_3_0_0: flow_7_3_0_0 - 1000 edge_7_3_0_0 <= 0
 inactive_no_flow_7_8_0_0: flow_7_8_0_0 - 1000 edge_7_8_0_0 <= 0
 inactive_no_flow_7_10_0_0: flow_7_10_0_0 - 1000 edge_7_10_0_0 <= 0
 inactive_no_flow_8_2_0_0: flow_8_2_0_0 - 1000 edge_8_2_0_0 <= 0
 inactive_no_flow_8_3_0_0: flow_8_3_0_0 - 1000 edge_8_3_0_0 <= 0
 inactive_no_flow_8_4_0_0: flow_8_4_0_0 - 1000 edge_8_4_0_0 <= 0
 inactive_no_flow_8_7_0_0: flow_8_7_0_0 - 1000 edge_8_7_0_0 <= 0
 inactive_no_flow_8_10_0_0: flow_8_10_0_0 - 1000 edge_8_10_0_0 <= 0
 inactive_no_flow_8_11_0_0: flow_8_11_0_0 - 1000 edge_8_11_0_0 <= 0
 inactive_no_flow_8_13_0_0: flow_8_13_0_0 - 1000 edge_8_13_0_0 <= 0
 inactive_no_flow_10_2_0_0: flow_10_2_0_0 - 1000 edge_10_2_0_0 <= 0
 inactive_no_flow_10_3_0_0: flow_10_3_0_0 - 1000 edge_10_3_0_0 <= 0
 inactive_no_flow_10_4_0_0: flow_10_4_0_0 - 1000 edge_10_4_0_0 <= 0
 inactive_no_flow_10_5_0_0: flow_10_5_0_0 - 1000 edge_10_5_0_0 <= 0
 inactive_no_flow_10_6_0_0: flow_10_6_0_0 - 1000 edge_10_6_0_0 <= 0
 inactive_no_flow_10_7_0_0: flow_10_7_0_0 - 1000 edge_10_7_0_0 <= 0
 inactive_no_flow_10_8_0_0: flow_10_8_0_0 - 1000 edge_10_8_0_0 <= 0
 inactive_no_flow_10_11_0_0: flow_10_11_0_0 - 1000 edge_10_11_0_0 <= 0
 inactive_no_flow_10_13_0_0: flow_10_13_0_0 - 1000 edge_10_13_0_0 <= 0
 inactive_no_flow_10_14_0_0: flow_10_14_0_0 - 1000 edge_10_14_0_0 <= 0
 inactive_no_flow_10_16_0_0: flow_10_16_0_0 - 1000 edge_10_16_0_0 <= 0
 inactive_no_flow_10_18_0_0: flow_10_18_0_0 - 1000 edge_10_18_0_0 <= 0
 inactive_no_flow_10_19_0_0: flow_10_19_0_0 - 1000 edge_10_19_0_0 <= 0
 inactive_no_flow_10_20_0_0: flow_10_20_0_0 - 1000 edge_10_20_0_0 <= 0
 inactive_no_flow_10_21_0_0: flow_10_21_0_0 - 1000 edge_10_21_0_0 <= 0
 inactive_no_flow_10_22_0_0: flow_10_22_0_0 - 1000 edge_10_22_0_0 <= 0
 inactive_no_flow_10_25_0_0: flow_10_25_0_0 - 1000 edge_10_25_0_0 <= 0
 inactive_no_flow_10_26_0_0: flow_10_26_0_0 - 1000 edge_10_26_0_0 <= 0
 inactive_no_flow_11_4_0_0: flow_11_4_0_0 - 1000 edge_11_4_0_0 <= 0
 inactive_no_flow_11_6_0_0: flow_11_6_0_0 - 1000 edge_11_6_0_0 <= 0
 inactive_no_flow_11_13_0_0: flow_11_13_0_0 - 1000 edge_11_13_0_0 <= 0
 inactive_no_flow_11_14_0_0: flow_11_14_0_0 - 1000 edge_11_14_0_0 <= 0
 inactive_no_flow_11_16_0_0: flow_11_16_0_0 - 1000 edge_11_16_0_0 <= 0
 inactive_no_flow_11_18_0_0: flow_11_18_0_0 - 1000 edge_11_18_0_0 <= 0
 inactive_no_flow_13_2_0_0: flow_13_2_0_0 - 1000 edge_13_2_0_0 <= 0
 inactive_no_flow_13_3_0_0: flow_13_3_0_0 - 1000 edge_13_3_0_0 <= 0
 inactive_no_flow_13_4_0_0: flow_13_4_0_0 - 1000 edge_13_4_0_0 <= 0
 inactive_no_flow_13_5_0_0: flow_13_5_0_0 - 1000 edge_13_5_0_0 <= 0
 inactive_no_flow_13_6_0_0: flow_13_6_0_0 - 1000 edge_13_6_0_0 <= 0
 inactive_no_flow_13_7_0_0: flow_13_7_0_0 - 1000 edge_13_7_0_0 <= 0
 inactive_no_flow_13_8_0_0: flow_13_8_0_0 - 1000 edge_13_8_0_0 <= 0
 inactive_no_flow_13_10_0_0: flow_13_10_0_0 - 1000 edge_13_10_0_0 <= 0
 inactive_no_flow_13_11_0_0: flow_13_11_0_0 - 1000 edge_13_11_0_0 <= 0
 inactive_no_flow_13_14_0_0: flow_13_14_0_0 - 1000 edge_13_14_0_0 <= 0
 inactive_no_flow_13_16_0_0: flow_13_16_0_0 - 1000 edge_13_16_0_0 <= 0
 inactive_no_flow_13_18_0_0: flow_13_18_0_0 - 1000 edge_13_18_0_0 <= 0
 inactive_no_flow_13_19_0_0: flow_13_19_0_0 - 1000 edge_13_19_0_0 <= 0
 inactive_no_flow_13_20_0_0: flow_13_20_0_0 - 1000 edge_13_20_0_0 <= 0
 inactive_no_flow_13_21_0_0: flow_13_21_0_0 - 1000 edge_13_21_0_0 <= 0
 inactive_no_flow_13_22_0_0: flow_13_22_0_0 - 1000 edge_13_22_0_0 <= 0
 inactive_no_flow_13_26_0_0: flow_13_26_0_0 - 1000 edge_13_26_0_0 <= 0
 inactive_no_flow_14_4_0_0: flow_14_4_0_0 - 1000 edge_14_4_0_0 <= 0
 inactive_no_flow_14_5_0_0: flow_14_5_0_0 - 1000 edge_14_5_0_0 <= 0
 inactive_no_flow_14_6_0_0: flow_14_6_0_0 - 1000 edge_14_6_0_0 <= 0
 inactive_no_flow_14_16_0_0: flow_14_16_0_0 - 1000 edge_14_16_0_0 <= 0
 inactive_no_flow_16_3_0_0: flow_16_3_0_0 - 1000 edge_16_3_0_0 <= 0
 inactive_no_flow_16_4_0_0: flow_16_4_0_0 - 1000 edge_16_4_0_0 <= 0
 inactive_no_flow_16_5_0_0: flow_16_5_0_0 - 1000 edge_16_5_0_0 <= 0
 inactive_no_flow_16_6_0_0: flow_16_6_0_0 - 1000 edge_16_6_0_0 <= 0
 inactive_no_flow_16_7_0_0: flow_16_7_0_0 - 1000 edge_16_7_0_0 <= 0
 inactive_no_flow_16_8_0_0: flow_16_8_0_0 - 1000 edge_16_8_0_0 <= 0
 inactive_no_flow_16_11_0_0: flow_16_11_0_0 - 1000 edge_16_11_0_0 <= 0
 inactive_no_flow_16_13_0_0: flow_16_13_0_0 - 1000 edge_16_13_0_0 <= 0
 inactive_no_flow_16_14_0_0: flow_16_14_0_0 - 1000 edge_16_14_0_0 <= 0
 inactive_no_flow_16_18_0_0: flow_16_18_0_0 - 1000 edge_16_18_0_0 <= 0
 inactive_no_flow_16_19_0_0: flow_16_19_0_0 - 1000 edge_16_19_0_0 <= 0
 inactive_no_flow_16_20_0_0: flow_16_20_0_0 - 1000 edge_16_20_0_0 <= 0
 inactive_no_flow_16_21_0_0: flow_16_21_0_0 - 1000 edge_16_21_0_0 <= 0
 inactive_no_flow_16_22_0_0: flow_16_22_0_0 - 1000 edge_16_22_0_0 <= 0
 inactive_no_flow_16_25_0_0: flow_16_25_0_0 - 1000 edge_16_25_0_0 <= 0
 inactive_no_flow_16_26_0_0: flow_16_26_0_0 - 1000 edge_16_26_0_0 <= 0
 inactive_no_flow_18_5_0_0: flow_18_5_0_0 - 1000 edge_18_5_0_0 <= 0
 inactive_no_flow_18_6_0_0: flow_18_6_0_0 - 1000 edge_18_6_0_0 <= 0
 inactive_no_flow_19_20_0_0: flow_19_20_0_0 - 1000 edge_19_20_0_0 <= 0
 inactive_no_flow_19_21_0_0: flow_19_21_0_0 - 1000 edge_19_21_0_0 <= 0
 inactive_no_flow_20_21_0_0: flow_20_21_0_0 - 1000 edge_20_21_0_0 <= 0
 inactive_no_flow_20_22_0_0: flow_20_22_0_0 - 1000 edge_20_22_0_0 <= 0
 inactive_no_flow_20_25_0_0: flow_20_25_0_0 - 1000 edge_20_25_0_0 <= 0
 inactive_no_flow_21_5_0_0: flow_21_5_0_0 - 1000 edge_21_5_0_0 <= 0
 inactive_no_flow_21_19_0_0: flow_21_19_0_0 - 1000 edge_21_19_0_0 <= 0
 inactive_no_flow_21_20_0_0: flow_21_20_0_0 - 1000 edge_21_20_0_0 <= 0
 inactive_no_flow_21_22_0_0: flow_21_22_0_0 - 1000 edge_21_22_0_0 <= 0
 inactive_no_flow_21_25_0_0: flow_21_25_0_0 - 1000 edge_21_25_0_0 <= 0
 inactive_no_flow_21_26_0_0: flow_21_26_0_0 - 1000 edge_21_26_0_0 <= 0
 inactive_no_flow_22_2_0_0: flow_22_2_0_0 - 1000 edge_22_2_0_0 <= 0
 inactive_no_flow_22_3_0_0: flow_22_3_0_0 - 1000 edge_22_3_0_0 <= 0
 inactive_no_flow_22_5_0_0: flow_22_5_0_0 - 1000 edge_22_5_0_0 <= 0
 inactive_no_flow_22_6_0_0: flow_22_6_0_0 - 1000 edge_22_6_0_0 <= 0
 inactive_no_flow_22_7_0_0: flow_22_7_0_0 - 1000 edge_22_7_0_0 <= 0
 inactive_no_flow_22_10_0_0: flow_22_10_0_0 - 1000 edge_22_10_0_0 <= 0
 inactive_no_flow_22_18_0_0: flow_22_18_0_0 - 1000 edge_22_18_0_0 <= 0
 inactive_no_flow_22_19_0_0: flow_22_19_0_0 - 1000 edge_22_19_0_0 <= 0
 inactive_no_flow_22_20_0_0: flow_22_20_0_0 - 1000 edge_22_20_0_0 <= 0
 inactive_no_flow_22_21_0_0: flow_22_21_0_0 - 1000 edge_22_21_0_0 <= 0
 inactive_no_flow_22_25_0_0: flow_22_25_0_0 - 1000 edge_22_25_0_0 <= 0
 inactive_no_flow_22_26_0_0: flow_22_26_0_0 - 1000 edge_22_26_0_0 <= 0
 inactive_no_flow_25_19_0_0: flow_25_19_0_0 - 1000 edge_25_19_0_0 <= 0
 inactive_no_flow_25_20_0_0: flow_25_20_0_0 - 1000 edge_25_20_0_0 <= 0
 inactive_no_flow_25_22_0_0: flow_25_22_0_0 - 1000 edge_25_22_0_0 <= 0
 inactive_no_flow_25_26_0_0: flow_25_26_0_0 - 1000 edge_25_26_0_0 <= 0
 inactive_no_flow_26_25_0_0: flow_26_25_0_0 - 1000 edge_26_25_0_0 <= 0
Bounds
Binaries
 edge_0_2_0_0 edge_0_3_0_0 edge_0_7_0_0 edge_0_10_0_0 edge_2_3_0_0
 edge_2_4_0_0 edge_2_7_0_0 edge_2_8_0_0 edge_2_10_0_0 edge_2_11_0_0
 edge_2_13_0_0 edge_2_18_0_0 edge_3_2_0_0 edge_3_4_0_0 edge_3_6_0_0
 edge_3_7_0_0 edge_3_8_0_0 edge_3_10_0_0 edge_3_11_0_0 edge_3_13_0_0
 edge_3_14_0_0 edge_3_16_0_0 edge_3_18_0_0 edge_3_19_0_0 edge_3_21_0_0
 edge_3_22_0_0 edge_3_25_0_0 edge_3_26_0_0 edge_4_14_0_0 edge_4_16_0_0
 edge_6_2_0_0 edge_6_3_0_0 edge_6_4_0_0 edge_6_5_0_0 edge_6_7_0_0
 edge_6_8_0_0 edge_6_11_0_0 edge_6_13_0_0 edge_6_14_0_0 edge_6_16_0_0
 edge_6_18_0_0 edge_6_19_0_0 edge_6_20_0_0 edge_6_21_0_0 edge_6_22_0_0
 edge_6_25_0_0 edge_6_26_0_0 edge_7_2_0_0 edge_7_3_0_0 edge_7_8_0_0
 edge_7_10_0_0 edge_8_2_0_0 edge_8_3_0_0 edge_8_4_0_0 edge_8_7_0_0
 edge_8_10_0_0 edge_8_11_0_0 edge_8_13_0_0 edge_10_2_0_0 edge_10_3_0_0
 edge_10_4_0_0 edge_10_5_0_0 edge_10_6_0_0 edge_10_7_0_0 edge_10_8_0_0
 edge_10_11_0_0 edge_10_13_0_0 edge_10_14_0_0 edge_10_16_0_0 edge_10_18_0_0
 edge_10_19_0_0 edge_10_20_0_0 edge_10_21_0_0 edge_10_22_0_0 edge_10_25_0_0
 edge_10_26_0_0 edge_11_4_0_0 edge_11_6_0_0 edge_11_13_0_0 edge_11_14_0_0
 edge_11_16_0_0 edge_11_18_0_0 edge_13_2_0_0 edge_13_3_0_0 edge_13_4_0_0
 edge_13_5_0_0 edge_13_6_0_0 edge_13_7_0_0 edge_13_8_0_0 edge_13_10_0_0
 edge_13_11_0_0 edge_13_14_0_0 edge_13_16_0_0 edge_13_18_0_0 edge_13_19_0_0
 edge_13_20_0_0 edge_13_21_0_0 edge_13_22_0_0 edge_13_26_0_0 edge_14_4_0_0
 edge_14_5_0_0 edge_14_6_0_0 edge_14_16_0_0 edge_16_3_0_0 edge_16_4_0_0
 edge_16_5_0_0 edge_16_6_0_0 edge_16_7_0_0 edge_16_8_0_0 edge_16_11_0_0
 edge_16_13_0_0 edge_16_14_0_0 edge_16_18_0_0 edge_16_19_0_0 edge_16_20_0_0
 edge_16_21_0_0 edge_16_22_0_0 edge_16_25_0_0 edge_16_26_0_0 edge_18_5_0_0
 edge_18_6_0_0 edge_19_20_0_0 edge_19_21_0_0 edge_20_21_0_0 edge_20_22_0_0
 edge_20_25_0_0 edge_21_5_0_0 edge_21_19_0_0 edge_21_20_0_0 edge_21_22_0_0
 edge_21_25_0_0 edge_21_26_0_0 edge_22_2_0_0 edge_22_3_0_0 edge_22_5_0_0
 edge_22_6_0_0 edge_22_7_0_0 edge_22_10_0_0 edge_22_18_0_0 edge_22_19_0_0
 edge_22_20_0_0 edge_22_21_0_0 edge_22_25_0_0 edge_22_26_0_0 edge_25_19_0_0
 edge_25_20_0_0 edge_25_22_0_0 edge_25_26_0_0 edge_26_25_0_0
End
